c Generated map
c Size: 8 * 8, weights in range: 1 to 10, walls: True, with ratio 0.05
c dim 1 of 8
c
p sp 64 102
c graph contains 64 nodes and 102 arcs
c
a 1 9 7
a 9 1 7
a 3 11 4
a 11 3 4
a 3 4 7
a 4 3 7
a 4 12 6
a 12 4 6
a 4 5 4
a 5 4 4
a 5 13 5
a 13 5 5
a 5 6 6
a 6 5 6
a 6 14 5
a 14 6 5
a 6 7 9
a 7 6 9
a 7 15 6
a 15 7 6
a 7 8 9
a 8 7 9
a 8 16 8
a 16 8 8
a 9 17 9
a 17 9 9
a 9 10 9
a 10 9 9
a 10 18 6
a 18 10 6
a 10 11 4
a 11 10 4
a 11 19 7
a 19 11 7
a 11 12 4
a 12 11 4
a 12 20 1
a 20 12 1
a 12 13 4
a 13 12 4
a 13 21 9
a 21 13 9
a 13 14 4
a 14 13 4
a 14 22 7
a 22 14 7
a 14 15 8
a 15 14 8
a 15 23 2
a 23 15 2
a 15 16 6
a 16 15 6
a 16 24 1
a 24 16 1
a 17 18 3
a 18 17 3
a 18 26 7
a 26 18 7
a 18 19 6
a 19 18 6
a 19 20 5
a 20 19 5
a 20 28 7
a 28 20 7
a 20 21 2
a 21 20 2
a 21 29 1
a 29 21 1
a 21 22 7
a 22 21 7
a 22 30 10
a 30 22 10
a 22 23 1
a 23 22 1
a 23 31 1
a 31 23 1
a 23 24 9
a 24 23 9
a 24 32 10
a 32 24 10
a 26 34 9
a 34 26 9
a 28 36 6
a 36 28 6
a 28 29 6
a 29 28 6
a 29 37 3
a 37 29 3
a 29 30 6
a 30 29 6
a 30 38 9
a 38 30 9
a 30 31 5
a 31 30 5
a 31 39 7
a 39 31 7
a 31 32 8
a 32 31 8
a 32 40 7
a 40 32 7
a 33 41 4
a 41 33 4
a 33 34 4
a 34 33 4
a 34 42 8
a 42 34 8
a 34 35 9
a 35 34 9
a 35 43 3
a 43 35 3
a 35 36 7
a 36 35 7
a 36 44 8
a 44 36 8
a 36 37 3
a 37 36 3
a 37 45 10
a 45 37 10
a 37 38 1
a 38 37 1
a 38 46 1
a 46 38 1
a 38 39 10
a 39 38 10
a 39 47 10
a 47 39 10
a 39 40 5
a 40 39 5
a 40 48 2
a 48 40 2
a 41 49 2
a 49 41 2
a 41 42 7
a 42 41 7
a 42 50 5
a 50 42 5
a 42 43 3
a 43 42 3
a 43 51 3
a 51 43 3
a 43 44 6
a 44 43 6
a 44 52 5
a 52 44 5
a 44 45 4
a 45 44 4
a 45 53 6
a 53 45 6
a 45 46 10
a 46 45 10
a 46 54 7
a 54 46 7
a 46 47 1
a 47 46 1
a 47 55 7
a 55 47 7
a 47 48 10
a 48 47 10
a 48 56 10
a 56 48 10
a 49 57 4
a 57 49 4
a 49 50 5
a 50 49 5
a 50 58 8
a 58 50 8
a 50 51 10
a 51 50 10
a 51 59 1
a 59 51 1
a 51 52 10
a 52 51 10
a 52 60 6
a 60 52 6
a 52 53 10
a 53 52 10
a 53 61 2
a 61 53 2
a 53 54 9
a 54 53 9
a 54 62 4
a 62 54 4
a 54 55 3
a 55 54 3
a 55 63 1
a 63 55 1
a 55 56 7
a 56 55 7
a 56 64 7
a 64 56 7
a 57 58 6
a 58 57 6
a 58 59 10
a 59 58 10
a 59 60 10
a 60 59 10
a 60 61 5
a 61 60 5
a 61 62 5
a 62 61 5
a 62 63 1
a 63 62 1
a 63 64 4
a 64 63 4
